eval/18-encs/equiv_enc_921.smt2
; SWAP1 SHA3 PUSH cw_1 SWAP1 DUP2 SWAP1 => PUSH cw_1 SWAP1 DUP2 SWAP3 SHA3
(set-option :produce-proofs true)
; 
(set-info :status unknown)
(declare-fun storage_t ((_ BitVec 256) (_ BitVec 256) (_ BitVec 256) (_ BitVec 256) Int (_ BitVec 256)) (_ BitVec 256))
(declare-fun w_1 () (_ BitVec 256))
(declare-fun storage_s ((_ BitVec 256) (_ BitVec 256) (_ BitVec 256) (_ BitVec 256) Int (_ BitVec 256)) (_ BitVec 256))
(declare-fun exc_halt_t (Int) Bool)
(declare-fun exc_halt_s (Int) Bool)
(declare-fun sc_t (Int) (_ BitVec 6))
(declare-fun stack_t ((_ BitVec 256) (_ BitVec 256) (_ BitVec 256) (_ BitVec 256) Int (_ BitVec 6)) (_ BitVec 256))
(declare-fun stack_s ((_ BitVec 256) (_ BitVec 256) (_ BitVec 256) (_ BitVec 256) Int (_ BitVec 6)) (_ BitVec 256))
(declare-fun sc_s (Int) (_ BitVec 6))
(declare-fun used_gas_t ((_ BitVec 256) (_ BitVec 256) (_ BitVec 256) (_ BitVec 256) Int) Int)
(declare-fun used_gas_s ((_ BitVec 256) (_ BitVec 256) (_ BitVec 256) (_ BitVec 256) Int) Int)
(declare-fun f_SHA3 ((_ BitVec 256) (_ BitVec 256) (_ BitVec 256) (_ BitVec 256) (_ BitVec 256) (_ BitVec 256)) (_ BitVec 256))
(assert
 (exists ((x_0 (_ BitVec 256)) (x_1 (_ BitVec 256)) (x_SHA3_0 (_ BitVec 256)) )(let (($x3992 (forall ((w (_ BitVec 256)) )(let ((?x4527 (storage_t x_0 x_1 w_1 x_SHA3_0 5 w)))
 (let ((?x10830 (storage_s x_0 x_1 w_1 x_SHA3_0 6 w)))
 (= ?x10830 ?x4527))))
 ))
 (let (($x10311 (exc_halt_t 5)))
 (let (($x7121 (exc_halt_s 6)))
 (let (($x4193 (= $x7121 $x10311)))
 (let (($x3307 (forall ((n (_ BitVec 6)) )(let ((?x8823 (stack_t x_0 x_1 w_1 x_SHA3_0 5 n)))
 (let ((?x4437 (stack_s x_0 x_1 w_1 x_SHA3_0 6 n)))
 (let (($x7266 (= ?x4437 ?x8823)))
 (or $x7266 (bvsle (sc_t 5) n))))))
 ))
 (let ((?x10036 (sc_t 5)))
 (let ((?x9114 (sc_s 6)))
 (let (($x3957 (= ?x9114 ?x10036)))
 (let ((?x5691 (used_gas_t x_0 x_1 w_1 x_SHA3_0 0)))
 (let ((?x10495 (used_gas_s x_0 x_1 w_1 x_SHA3_0 0)))
 (let (($x6189 (= ?x10495 ?x5691)))
 (let (($x8405 (forall ((w (_ BitVec 256)) )(let ((?x5055 (storage_t x_0 x_1 w_1 x_SHA3_0 0 w)))
 (let ((?x761 (storage_s x_0 x_1 w_1 x_SHA3_0 0 w)))
 (= ?x761 ?x5055))))
 ))
 (let (($x56 (exc_halt_t 0)))
 (let (($x57 (exc_halt_s 0)))
 (let (($x58 (= $x57 $x56)))
 (let (($x2043 (forall ((n (_ BitVec 6)) )(let ((?x7068 (stack_t x_0 x_1 w_1 x_SHA3_0 0 n)))
 (let ((?x446 (stack_s x_0 x_1 w_1 x_SHA3_0 0 n)))
 (let (($x10841 (= ?x446 ?x7068)))
 (let ((?x63 (sc_t 0)))
 (let (($x4809 (bvsle ?x63 n)))
 (or $x4809 $x10841)))))))
 ))
 (let ((?x63 (sc_t 0)))
 (let ((?x72 (sc_s 0)))
 (let (($x73 (= ?x72 ?x63)))
 (let (($x8247 (= $x10311 (or (exc_halt_t 4) (not (bvsle (_ bv0 6) (bvadd (_ bv62 6) (sc_t 4))))))))
 (let (($x10907 (forall ((w (_ BitVec 256)) )(let ((?x8090 (storage_t x_0 x_1 w_1 x_SHA3_0 4 w)))
 (let ((?x4527 (storage_t x_0 x_1 w_1 x_SHA3_0 5 w)))
 (= ?x4527 ?x8090))))
 ))
 (let (($x3337 (forall ((n (_ BitVec 6)) )(let ((?x4082 (stack_t x_0 x_1 w_1 x_SHA3_0 4 n)))
 (let ((?x8823 (stack_t x_0 x_1 w_1 x_SHA3_0 5 n)))
 (or (bvsle (bvadd (_ bv62 6) (sc_t 4)) n) (= ?x8823 ?x4082)))))
 ))
 (let (($x9200 (= (used_gas_t x_0 x_1 w_1 x_SHA3_0 5) (+ 30 (used_gas_t x_0 x_1 w_1 x_SHA3_0 4)))))
 (let ((?x7495 (sc_t 4)))
 (let ((?x3815 (bvadd (_ bv62 6) ?x7495)))
 (let ((?x2842 (stack_t x_0 x_1 w_1 x_SHA3_0 4 ?x3815)))
 (let ((?x9787 (bvadd (_ bv63 6) ?x7495)))
 (let ((?x2303 (stack_t x_0 x_1 w_1 x_SHA3_0 4 ?x9787)))
 (let (($x6690 (= (stack_t x_0 x_1 w_1 x_SHA3_0 5 (bvadd (_ bv63 6) ?x10036)) (f_SHA3 x_0 x_1 w_1 x_SHA3_0 ?x2303 ?x2842))))
 (let (($x7854 (exc_halt_t 4)))
 (let (($x5180 (= $x7854 (or (exc_halt_t 3) (not (bvsle (_ bv0 6) (bvadd (_ bv60 6) (sc_t 3))))))))
 (let (($x9378 (forall ((w (_ BitVec 256)) )(let ((?x4382 (storage_t x_0 x_1 w_1 x_SHA3_0 3 w)))
 (let ((?x8090 (storage_t x_0 x_1 w_1 x_SHA3_0 4 w)))
 (= ?x8090 ?x4382))))
 ))
 (let (($x7508 (forall ((n (_ BitVec 6)) )(let ((?x6177 (stack_t x_0 x_1 w_1 x_SHA3_0 3 n)))
 (let ((?x4082 (stack_t x_0 x_1 w_1 x_SHA3_0 4 n)))
 (or (= ?x4082 ?x6177) (bvsle (bvadd (_ bv60 6) (sc_t 3)) n)))))
 ))
 (let ((?x864 (used_gas_t x_0 x_1 w_1 x_SHA3_0 4)))
 (let (($x6941 (= ?x2842 (stack_t x_0 x_1 w_1 x_SHA3_0 3 (bvadd (_ bv62 6) (sc_t 3))))))
 (let (($x4868 (= (stack_t x_0 x_1 w_1 x_SHA3_0 4 (bvadd (_ bv61 6) ?x7495)) (stack_t x_0 x_1 w_1 x_SHA3_0 3 (bvadd (_ bv61 6) (sc_t 3))))))
 (let ((?x2172 (stack_t x_0 x_1 w_1 x_SHA3_0 3 (bvadd (_ bv63 6) (sc_t 3)))))
 (let (($x6444 (= ?x2303 (stack_t x_0 x_1 w_1 x_SHA3_0 3 (bvadd (_ bv60 6) (sc_t 3))))))
 (let (($x8194 (exc_halt_t 2)))
 (let (($x3319 (or (not (= ((_ extract 6 6) (bvadd (_ bv1 7) (concat (_ bv0 1) (sc_t 2)))) (_ bv0 1))) (not (bvsle (_ bv0 6) (bvadd (_ bv62 6) (sc_t 2)))) $x8194)))
 (let (($x9131 (exc_halt_t 3)))
 (let (($x2133 (forall ((w (_ BitVec 256)) )(let ((?x8238 (storage_t x_0 x_1 w_1 x_SHA3_0 2 w)))
 (let ((?x4382 (storage_t x_0 x_1 w_1 x_SHA3_0 3 w)))
 (= ?x4382 ?x8238))))
 ))
 (let (($x10968 (forall ((n (_ BitVec 6)) )(let ((?x8374 (stack_t x_0 x_1 w_1 x_SHA3_0 2 n)))
 (let ((?x6177 (stack_t x_0 x_1 w_1 x_SHA3_0 3 n)))
 (or (= ?x6177 ?x8374) (bvsle (bvadd (_ bv62 6) (sc_t 2)) n)))))
 ))
 (let ((?x7439 (used_gas_t x_0 x_1 w_1 x_SHA3_0 3)))
 (let ((?x6535 (sc_t 2)))
 (let ((?x7497 (bvadd (_ bv63 6) ?x6535)))
 (let ((?x2177 (stack_t x_0 x_1 w_1 x_SHA3_0 2 ?x7497)))
 (let ((?x4179 (bvadd (_ bv62 6) ?x6535)))
 (let ((?x7047 (stack_t x_0 x_1 w_1 x_SHA3_0 2 ?x4179)))
 (let (($x12001 (= $x8194 (or (exc_halt_t 1) (not (bvsle (_ bv0 6) (bvadd (_ bv62 6) (sc_t 1))))))))
 (let (($x6987 (forall ((w (_ BitVec 256)) )(let ((?x420 (storage_t x_0 x_1 w_1 x_SHA3_0 1 w)))
 (let ((?x8238 (storage_t x_0 x_1 w_1 x_SHA3_0 2 w)))
 (= ?x8238 ?x420))))
 ))
 (let (($x6778 (forall ((n (_ BitVec 6)) )(let ((?x8137 (stack_t x_0 x_1 w_1 x_SHA3_0 1 n)))
 (let ((?x8374 (stack_t x_0 x_1 w_1 x_SHA3_0 2 n)))
 (or (bvsle (bvadd (_ bv62 6) (sc_t 1)) n) (= ?x8374 ?x8137)))))
 ))
 (let ((?x6802 (used_gas_t x_0 x_1 w_1 x_SHA3_0 2)))
 (let (($x9613 (= ?x7047 (stack_t x_0 x_1 w_1 x_SHA3_0 1 (bvadd (_ bv63 6) (sc_t 1))))))
 (let (($x6527 (= ?x2177 (stack_t x_0 x_1 w_1 x_SHA3_0 1 (bvadd (_ bv62 6) (sc_t 1))))))
 (let (($x7008 (exc_halt_t 1)))
 (let (($x2089 (= $x7008 (or $x56 (not (= ((_ extract 6 6) (bvadd (_ bv1 7) (concat (_ bv0 1) ?x63))) (_ bv0 1)))))))
 (let (($x462 (forall ((w (_ BitVec 256)) )(let ((?x5055 (storage_t x_0 x_1 w_1 x_SHA3_0 0 w)))
 (let ((?x420 (storage_t x_0 x_1 w_1 x_SHA3_0 1 w)))
 (= ?x420 ?x5055))))
 ))
 (let (($x1732 (forall ((n (_ BitVec 6)) )(let ((?x7068 (stack_t x_0 x_1 w_1 x_SHA3_0 0 n)))
 (let ((?x8137 (stack_t x_0 x_1 w_1 x_SHA3_0 1 n)))
 (let ((?x63 (sc_t 0)))
 (let (($x4809 (bvsle ?x63 n)))
 (or $x4809 (= ?x8137 ?x7068)))))))
 ))
 (let ((?x6360 (sc_t 1)))
 (let (($x6856 (= ?x6360 (bvadd (_ bv1 6) ?x63))))
 (let (($x8786 (= $x7121 (or (exc_halt_s 5) (not (bvsle (_ bv0 6) (bvadd (_ bv62 6) (sc_s 5))))))))
 (let (($x11083 (forall ((w (_ BitVec 256)) )(let ((?x9612 (storage_s x_0 x_1 w_1 x_SHA3_0 5 w)))
 (let ((?x10830 (storage_s x_0 x_1 w_1 x_SHA3_0 6 w)))
 (= ?x10830 ?x9612))))
 ))
 (let (($x4590 (forall ((n (_ BitVec 6)) )(let ((?x8910 (stack_s x_0 x_1 w_1 x_SHA3_0 5 n)))
 (let ((?x4437 (stack_s x_0 x_1 w_1 x_SHA3_0 6 n)))
 (or (= ?x4437 ?x8910) (bvsle (bvadd (_ bv62 6) (sc_s 5)) n)))))
 ))
 (let ((?x4319 (sc_s 5)))
 (let (($x9879 (= ?x9114 ?x4319)))
 (let (($x6502 (= (used_gas_s x_0 x_1 w_1 x_SHA3_0 6) (+ 3 (used_gas_s x_0 x_1 w_1 x_SHA3_0 5)))))
 (let ((?x262 (bvadd (_ bv63 6) ?x4319)))
 (let ((?x2011 (stack_s x_0 x_1 w_1 x_SHA3_0 5 ?x262)))
 (let (($x6628 (= (stack_s x_0 x_1 w_1 x_SHA3_0 6 (bvadd (_ bv63 6) ?x9114)) (stack_s x_0 x_1 w_1 x_SHA3_0 5 (bvadd (_ bv62 6) ?x4319)))))
 (let (($x9175 (exc_halt_s 4)))
 (let (($x8808 (or (not (= ((_ extract 6 6) (bvadd (_ bv1 7) (concat (_ bv0 1) (sc_s 4)))) (_ bv0 1))) (not (bvsle (_ bv0 6) (bvadd (_ bv62 6) (sc_s 4)))) $x9175)))
 (let (($x1862 (exc_halt_s 5)))
 (let (($x3634 (forall ((w (_ BitVec 256)) )(let ((?x7623 (storage_s x_0 x_1 w_1 x_SHA3_0 4 w)))
 (let ((?x9612 (storage_s x_0 x_1 w_1 x_SHA3_0 5 w)))
 (= ?x9612 ?x7623))))
 ))
 (let (($x11336 (forall ((n (_ BitVec 6)) )(let ((?x11544 (stack_s x_0 x_1 w_1 x_SHA3_0 4 n)))
 (let ((?x8910 (stack_s x_0 x_1 w_1 x_SHA3_0 5 n)))
 (or (bvsle (bvadd (_ bv62 6) (sc_s 4)) n) (= ?x8910 ?x11544)))))
 ))
 (let ((?x2849 (used_gas_s x_0 x_1 w_1 x_SHA3_0 5)))
 (let ((?x9433 (sc_s 4)))
 (let ((?x2904 (bvadd (_ bv63 6) ?x9433)))
 (let ((?x8272 (stack_s x_0 x_1 w_1 x_SHA3_0 4 ?x2904)))
 (let ((?x9158 (bvadd (_ bv62 6) ?x9433)))
 (let ((?x3489 (stack_s x_0 x_1 w_1 x_SHA3_0 4 ?x9158)))
 (let (($x874 (= $x9175 (or (exc_halt_s 3) (not (bvsle (_ bv0 6) (bvadd (_ bv62 6) (sc_s 3))))))))
 (let (($x8902 (forall ((w (_ BitVec 256)) )(let ((?x6058 (storage_s x_0 x_1 w_1 x_SHA3_0 3 w)))
 (let ((?x7623 (storage_s x_0 x_1 w_1 x_SHA3_0 4 w)))
 (= ?x7623 ?x6058))))
 ))
 (let (($x5133 (forall ((n (_ BitVec 6)) )(let ((?x9779 (stack_s x_0 x_1 w_1 x_SHA3_0 3 n)))
 (let ((?x11544 (stack_s x_0 x_1 w_1 x_SHA3_0 4 n)))
 (let ((?x3851 (sc_s 3)))
 (let ((?x2944 (bvadd (_ bv62 6) ?x3851)))
 (let (($x2023 (bvsle ?x2944 n)))
 (or $x2023 (= ?x11544 ?x9779))))))))
 ))
 (let ((?x1026 (used_gas_s x_0 x_1 w_1 x_SHA3_0 4)))
 (let (($x7629 (= ?x3489 (stack_s x_0 x_1 w_1 x_SHA3_0 3 (bvadd (_ bv63 6) (sc_s 3))))))
 (let (($x5483 (= ?x8272 (stack_s x_0 x_1 w_1 x_SHA3_0 3 (bvadd (_ bv62 6) (sc_s 3))))))
 (let (($x388 (not (= ((_ extract 6 6) (bvadd (_ bv1 7) (concat (_ bv0 1) (sc_s 2)))) (_ bv0 1)))))
 (let (($x10052 (exc_halt_s 2)))
 (let (($x8103 (exc_halt_s 3)))
 (let (($x4625 (forall ((w (_ BitVec 256)) )(let ((?x6136 (storage_s x_0 x_1 w_1 x_SHA3_0 2 w)))
 (let ((?x6058 (storage_s x_0 x_1 w_1 x_SHA3_0 3 w)))
 (= ?x6058 ?x6136))))
 ))
 (let (($x11793 (forall ((n (_ BitVec 6)) )(let ((?x7328 (stack_s x_0 x_1 w_1 x_SHA3_0 2 n)))
 (let ((?x9779 (stack_s x_0 x_1 w_1 x_SHA3_0 3 n)))
 (or (= ?x9779 ?x7328) (bvsle (sc_s 2) n)))))
 ))
 (let ((?x3851 (sc_s 3)))
 (let (($x1249 (= ?x3851 (bvadd (_ bv1 6) (sc_s 2)))))
 (let ((?x1842 (used_gas_s x_0 x_1 w_1 x_SHA3_0 3)))
 (let (($x4287 (= $x10052 (or (exc_halt_s 1) (not (bvsle (_ bv0 6) (bvadd (_ bv62 6) (sc_s 1))))))))
 (let (($x6513 (forall ((w (_ BitVec 256)) )(let ((?x7502 (storage_s x_0 x_1 w_1 x_SHA3_0 1 w)))
 (let ((?x6136 (storage_s x_0 x_1 w_1 x_SHA3_0 2 w)))
 (= ?x6136 ?x7502))))
 ))
 (let (($x7459 (forall ((n (_ BitVec 6)) )(let ((?x7372 (stack_s x_0 x_1 w_1 x_SHA3_0 1 n)))
 (let ((?x7328 (stack_s x_0 x_1 w_1 x_SHA3_0 2 n)))
 (or (bvsle (bvadd (_ bv62 6) (sc_s 1)) n) (= ?x7328 ?x7372)))))
 ))
 (let ((?x104 (used_gas_s x_0 x_1 w_1 x_SHA3_0 2)))
 (let ((?x154 (sc_s 1)))
 (let ((?x10016 (bvadd (_ bv62 6) ?x154)))
 (let ((?x1547 (stack_s x_0 x_1 w_1 x_SHA3_0 1 ?x10016)))
 (let ((?x8257 (bvadd (_ bv63 6) ?x154)))
 (let ((?x8480 (stack_s x_0 x_1 w_1 x_SHA3_0 1 ?x8257)))
 (let (($x1022 (= (stack_s x_0 x_1 w_1 x_SHA3_0 2 (bvadd (_ bv63 6) (sc_s 2))) (f_SHA3 x_0 x_1 w_1 x_SHA3_0 ?x8480 ?x1547))))
 (let (($x11660 (forall ((w (_ BitVec 256)) )(let ((?x761 (storage_s x_0 x_1 w_1 x_SHA3_0 0 w)))
 (let ((?x7502 (storage_s x_0 x_1 w_1 x_SHA3_0 1 w)))
 (= ?x7502 ?x761))))
 ))
 (let (($x3734 (forall ((n (_ BitVec 6)) )(let ((?x446 (stack_s x_0 x_1 w_1 x_SHA3_0 0 n)))
 (let ((?x7372 (stack_s x_0 x_1 w_1 x_SHA3_0 1 n)))
 (or (bvsle (bvadd (_ bv62 6) (sc_s 0)) n) (= ?x7372 ?x446)))))
 ))
 (let (($x4717 (forall ((w0 (_ BitVec 256)) (w1 (_ BitVec 256)) )(let (($x11625 (= (stack_s x_0 x_1 w_1 x_SHA3_0 1 (bvadd (_ bv62 6) (sc_s 1))) w1)))
 (let (($x10622 (= (stack_s x_0 x_1 w_1 x_SHA3_0 1 (bvadd (_ bv63 6) (sc_s 1))) w0)))
 (let ((?x900 (f_SHA3 x_0 x_1 w_1 x_SHA3_0 w0 w1)))
 (= ?x900 (ite (and $x10622 $x11625) x_SHA3_0 (_ bv0 256)))))))
 ))
 (let (($x6021 (forall ((w (_ BitVec 256)) )(let ((?x761 (storage_s x_0 x_1 w_1 x_SHA3_0 0 w)))
 (= ?x761 (_ bv0 256))))
 ))
 (let (($x1329 (= ?x10495 0)))
 (let (($x7519 (not $x57)))
 (let (($x7492 (= (stack_s x_0 x_1 w_1 x_SHA3_0 0 (_ bv1 6)) x_1)))
 (let (($x11852 (= (stack_s x_0 x_1 w_1 x_SHA3_0 0 (_ bv0 6)) x_0)))
 (let (($x11438 (= ?x72 (_ bv2 6))))
 (and $x11438 $x11852 $x7492 $x7519 $x1329 $x6021 $x4717 (= ?x8480 (stack_s x_0 x_1 w_1 x_SHA3_0 0 (bvadd (_ bv62 6) ?x72))) (= ?x1547 (stack_s x_0 x_1 w_1 x_SHA3_0 0 (bvadd (_ bv63 6) ?x72))) (= (used_gas_s x_0 x_1 w_1 x_SHA3_0 1) (+ 3 ?x10495)) (= ?x154 ?x72) $x3734 $x11660 (= (exc_halt_s 1) (or $x57 (not (bvsle (_ bv0 6) (bvadd (_ bv62 6) ?x72))))) $x1022 (= ?x104 (+ 30 (used_gas_s x_0 x_1 w_1 x_SHA3_0 1))) (= (sc_s 2) ?x8257) $x7459 $x6513 $x4287 (= (stack_s x_0 x_1 w_1 x_SHA3_0 3 (sc_s 2)) w_1) (= ?x1842 (+ 3 ?x104)) $x1249 $x11793 $x4625 (= $x8103 (or $x10052 $x388)) $x5483 $x7629 (= ?x1026 (+ 3 ?x1842)) (= ?x9433 ?x3851) $x5133 $x8902 $x874 (= ?x2011 ?x3489) (= (stack_s x_0 x_1 w_1 x_SHA3_0 5 ?x9158) ?x3489) (= (stack_s x_0 x_1 w_1 x_SHA3_0 5 ?x2904) ?x8272) (= ?x2849 (+ 3 ?x1026)) (= ?x4319 (bvadd (_ bv1 6) ?x9433)) $x11336 $x3634 (= $x1862 $x8808) $x6628 (= (stack_s x_0 x_1 w_1 x_SHA3_0 6 (bvadd (_ bv62 6) ?x9114)) ?x2011) $x6502 $x9879 $x4590 $x11083 $x8786 (= (stack_t x_0 x_1 w_1 x_SHA3_0 1 ?x63) w_1) (= (used_gas_t x_0 x_1 w_1 x_SHA3_0 1) (+ 3 ?x5691)) $x6856 $x1732 $x462 $x2089 $x6527 $x9613 (= ?x6802 (+ 3 (used_gas_t x_0 x_1 w_1 x_SHA3_0 1))) (= ?x6535 ?x6360) $x6778 $x6987 $x12001 (= ?x2172 ?x7047) (= (stack_t x_0 x_1 w_1 x_SHA3_0 3 ?x4179) ?x7047) (= (stack_t x_0 x_1 w_1 x_SHA3_0 3 ?x7497) ?x2177) (= ?x7439 (+ 3 ?x6802)) (= (sc_t 3) (bvadd (_ bv1 6) ?x6535)) $x10968 $x2133 (= $x9131 $x3319) $x6444 (= (stack_t x_0 x_1 w_1 x_SHA3_0 4 (bvadd (_ bv60 6) ?x7495)) ?x2172) $x4868 $x6941 (= ?x864 (+ 3 ?x7439)) (= ?x7495 (sc_t 3)) $x7508 $x9378 $x5180 $x6690 $x9200 (= ?x10036 ?x9787) $x3337 $x10907 $x8247 $x73 $x2043 $x58 $x8405 $x6189 (not (and $x3957 $x3307 $x4193 $x3992))))))))))))))))))))))))))))))))))))))))))))))))))))))))))))))))))))))))))))))))))))))))))))))))))))))))))))))))))))))
 )
(check-sat)
(get-proof)
